; ./prepared/aeval/./multi-phase/s_split_27_000.smt2
(set-logic HORN)


(declare-fun |inv| ( Int Int Int ) Bool)
(declare-fun |fail| ( ) Bool)

(assert
  (forall ( (A Int) (B Int) (C Int) ) 
    (=>
      (and
        (and (= C 0) (>= B 0) (= A 0))
      )
      (inv A B C)
    )
  )
)
(assert
  (forall ( (A Int) (B Int) (C Int) (D Int) (E Int) ) 
    (=>
      (and
        (inv A D B)
        (let ((a!1 (= E (ite (= D (div A 1000)) (+ 1 B) B))))
  (and a!1 (= C (+ 1 A))))
      )
      (inv C D E)
    )
  )
)
(assert
  (forall ( (A Int) (B Int) (C Int) ) 
    (=>
      (and
        (inv A B C)
        (let ((a!1 (not (<= A (+ 1000 (* 1000 B))))))
  (and a!1 (not (= C 1000))))
      )
      fail
    )
  )
)
(assert
  (forall ( (CHC_COMP_UNUSED Bool) ) 
    (=>
      (and
        fail
        true
      )
      false
    )
  )
)

(check-sat)
(exit)
